p cnf 24 192
-1 -6 2 0
-1 -6 5 0
-1 -10 3 0
-1 -10 9 0
-2 -5 1 0
-2 -5 6 0
-3 -9 1 0
-3 -9 10 0
-5 -11 7 0
-5 -11 9 0
-7 -9 5 0
-7 -9 11 0
-1 -14 2 0
-1 -14 13 0
-1 -18 3 0
-1 -18 17 0
-5 -14 6 0
-5 -14 13 0
-9 -18 10 0
-9 -18 17 0
-5 -22 7 0
-5 -22 21 0
-9 -22 11 0
-9 -22 21 0
-2 -13 1 0
-2 -13 14 0
-3 -17 1 0
-3 -17 18 0
-6 -13 5 0
-6 -13 14 0
-10 -17 9 0
-10 -17 18 0
-7 -21 5 0
-7 -21 22 0
-11 -21 9 0
-11 -21 22 0
-13 -19 15 0
-13 -19 17 0
-15 -17 13 0
-15 -17 19 0
-13 -23 15 0
-13 -23 21 0
-17 -23 19 0
-17 -23 21 0
-15 -21 13 0
-15 -21 23 0
-19 -21 17 0
-19 -21 23 0
-2 -6 1 0
-2 -6 5 0
-3 -10 1 0
-3 -10 9 0
-2 -6 1 0
-2 -6 5 0
-3 -10 1 0
-3 -10 9 0
-7 -11 5 0
-7 -11 9 0
-7 -11 5 0
-7 -11 9 0
-2 -14 1 0
-2 -14 13 0
-3 -18 1 0
-3 -18 17 0
-6 -14 5 0
-6 -14 13 0
-10 -18 9 0
-10 -18 17 0
-7 -22 5 0
-7 -22 21 0
-11 -22 9 0
-11 -22 21 0
-2 -14 1 0
-2 -14 13 0
-3 -18 1 0
-3 -18 17 0
-6 -14 5 0
-6 -14 13 0
-10 -18 9 0
-10 -18 17 0
-7 -22 5 0
-7 -22 21 0
-11 -22 9 0
-11 -22 21 0
-15 -19 13 0
-15 -19 17 0
-15 -19 13 0
-15 -19 17 0
-15 -23 13 0
-15 -23 21 0
-19 -23 17 0
-19 -23 21 0
-15 -23 13 0
-15 -23 21 0
-19 -23 17 0
-19 -23 21 0
-2 -12 4 0
-2 -12 11 0
-3 -8 4 0
-3 -8 7 0
-6 -12 8 0
-6 -12 10 0
-8 -10 6 0
-8 -10 12 0
-4 -7 3 0
-4 -7 8 0
-4 -11 2 0
-4 -11 12 0
-2 -20 4 0
-2 -20 19 0
-3 -16 4 0
-3 -16 15 0
-6 -24 8 0
-6 -24 23 0
-10 -24 12 0
-10 -24 23 0
-7 -16 8 0
-7 -16 15 0
-11 -20 12 0
-11 -20 19 0
-14 -20 16 0
-14 -20 18 0
-16 -18 14 0
-16 -18 20 0
-14 -24 16 0
-14 -24 22 0
-18 -24 20 0
-18 -24 22 0
-16 -22 14 0
-16 -22 24 0
-20 -22 18 0
-20 -22 24 0
-4 -15 3 0
-4 -15 16 0
-4 -19 2 0
-4 -19 20 0
-8 -15 7 0
-8 -15 16 0
-12 -19 11 0
-12 -19 20 0
-8 -23 6 0
-8 -23 24 0
-12 -23 10 0
-12 -23 24 0
-4 -8 3 0
-4 -8 7 0
-4 -12 2 0
-4 -12 11 0
-4 -8 3 0
-4 -8 7 0
-4 -12 2 0
-4 -12 11 0
-8 -12 6 0
-8 -12 10 0
-8 -12 6 0
-8 -12 10 0
-4 -16 3 0
-4 -16 15 0
-4 -20 2 0
-4 -20 19 0
-8 -16 7 0
-8 -16 15 0
-12 -20 11 0
-12 -20 19 0
-8 -24 6 0
-8 -24 23 0
-12 -24 10 0
-12 -24 23 0
-4 -16 3 0
-4 -16 15 0
-4 -20 2 0
-4 -20 19 0
-8 -16 7 0
-8 -16 15 0
-12 -20 11 0
-12 -20 19 0
-8 -24 6 0
-8 -24 23 0
-12 -24 10 0
-12 -24 23 0
-16 -20 14 0
-16 -20 18 0
-16 -20 14 0
-16 -20 18 0
-16 -24 14 0
-16 -24 22 0
-20 -24 18 0
-20 -24 22 0
-16 -24 14 0
-16 -24 22 0
-20 -24 18 0
-20 -24 22 0
